NAME          
ROWS
 N  OBJ
 L  c2
 L  c3
 L  c4
 L  c5
 L  c6
 G  c1
COLUMNS
    ss[1]     c1        1
    ss[1]     OBJ       1000
    s[1]      c2        1
    s[1]      OBJ       -1000
    s[2]      c3        1
    s[2]      OBJ       -1000
    s[3]      c4        1
    s[3]      OBJ       -1000
    s[4]      c5        1
    s[4]      OBJ       -1000
    s[5]      c6        1
    s[5]      OBJ       -1000
    MARKER    'MARKER'                 'INTORG'
    x[1]      c2        563
    x[1]      c3        588
    x[1]      c4        84
    x[1]      c5        728
    x[1]      c6        1000
    x[1]      c1        556
    x[1]      OBJ       -944
    x[2]      c2        659
    x[2]      c3        89
    x[2]      c4        258
    x[2]      c5        593
    x[2]      c6        637
    x[2]      c1        125
    x[2]      OBJ       -1210
    x[3]      c2        144
    x[3]      c3        884
    x[3]      c4        463
    x[3]      c5        698
    x[3]      c6        396
    x[3]      c1        736
    x[3]      OBJ       -701
    x[4]      c2        345
    x[4]      c3        128
    x[4]      c4        654
    x[4]      c5        258
    x[4]      c6        715
    x[4]      c1        557
    x[4]      OBJ       -624
    x[5]      c2        188
    x[5]      c3        202
    x[5]      c4        834
    x[5]      c5        459
    x[5]      c6        62
    x[5]      c1        301
    x[5]      OBJ       -1078
    x[6]      c2        345
    x[6]      c3        635
    x[6]      c4        545
    x[6]      c5        210
    x[6]      c6        136
    x[6]      c1        6
    x[6]      OBJ       -1383
    x[7]      c2        585
    x[7]      c3        29
    x[7]      c4        277
    x[7]      c5        433
    x[7]      c6        727
    x[7]      c1        111
    x[7]      OBJ       -1292
    x[8]      c2        400
    x[8]      c3        730
    x[8]      c4        781
    x[8]      c5        564
    x[8]      c6        187
    x[8]      c1        16
    x[8]      OBJ       -1405
    x[9]      c2        396
    x[9]      c3        968
    x[9]      c4        961
    x[9]      c5        782
    x[9]      c6        892
    x[9]      c1        704
    x[9]      OBJ       -1217
    x[10]     c2        425
    x[10]     c3        426
    x[10]     c4        531
    x[10]     c5        795
    x[10]     c6        872
    x[10]     c1        952
    x[10]     OBJ       -371
    x[11]     c2        393
    x[11]     c3        101
    x[11]     c4        664
    x[11]     c5        920
    x[11]     c6        701
    x[11]     c1        408
    x[11]     OBJ       -1236
    x[12]     c2        392
    x[12]     c3        987
    x[12]     c4        259
    x[12]     c5        417
    x[12]     c6        61
    x[12]     c1        492
    x[12]     OBJ       -1008
    x[13]     c2        864
    x[13]     c3        624
    x[13]     c4        334
    x[13]     c5        190
    x[13]     c6        836
    x[13]     c1        163
    x[13]     OBJ       -1507
    x[14]     c2        460
    x[14]     c3        911
    x[14]     c4        589
    x[14]     c5        104
    x[14]     c6        112
    x[14]     c1        938
    x[14]     OBJ       -264
    x[15]     c2        874
    x[15]     c3        580
    x[15]     c4        388
    x[15]     c5        40
    x[15]     c6        768
    x[15]     c1        315
    x[15]     OBJ       -1233
    x[16]     c2        949
    x[16]     c3        306
    x[16]     c4        857
    x[16]     c5        211
    x[16]     c6        538
    x[16]     c1        949
    x[16]     OBJ       -648
    x[17]     c2        969
    x[17]     c3        536
    x[17]     c4        792
    x[17]     c5        717
    x[17]     c6        494
    x[17]     c1        670
    x[17]     OBJ       -782
    x[18]     c2        774
    x[18]     c3        132
    x[18]     c4        905
    x[18]     c5        602
    x[18]     c6        801
    x[18]     c1        1000
    x[18]     OBJ       -361
    x[19]     c2        106
    x[19]     c3        370
    x[19]     c4        213
    x[19]     c5        969
    x[19]     c6        327
    x[19]     c1        457
    x[19]     OBJ       -795
    x[20]     c2        198
    x[20]     c3        691
    x[20]     c4        749
    x[20]     c5        927
    x[20]     c6        67
    x[20]     c1        816
    x[20]     OBJ       -526
    x[21]     c2        987
    x[21]     c3        739
    x[21]     c4        277
    x[21]     c5        585
    x[21]     c6        973
    x[21]     c1        357
    x[21]     OBJ       -1091
    x[22]     c2        234
    x[22]     c3        75
    x[22]     c4        31
    x[22]     c5        191
    x[22]     c6        711
    x[22]     c1        495
    x[22]     OBJ       -781
    x[23]     c2        770
    x[23]     c3        427
    x[23]     c4        178
    x[23]     c5        614
    x[23]     c6        670
    x[23]     c1        916
    x[23]     OBJ       -757
    x[24]     c2        870
    x[24]     c3        500
    x[24]     c4        620
    x[24]     c5        181
    x[24]     c6        478
    x[24]     c1        852
    x[24]     OBJ       -704
    x[25]     c2        933
    x[25]     c3        237
    x[25]     c4        690
    x[25]     c5        842
    x[25]     c6        9
    x[25]     c1        614
    x[25]     OBJ       -631
    x[26]     c2        599
    x[26]     c3        945
    x[26]     c4        916
    x[26]     c5        11
    x[26]     c6        373
    x[26]     c1        161
    x[26]     OBJ       -1140
    x[27]     c2        866
    x[27]     c3        180
    x[27]     c4        205
    x[27]     c5        620
    x[27]     c6        823
    x[27]     c1        60
    x[27]     OBJ       -1218
    x[28]     c2        512
    x[28]     c3        256
    x[28]     c4        138
    x[28]     c5        449
    x[28]     c6        417
    x[28]     c1        382
    x[28]     OBJ       -1063
    x[29]     c2        99
    x[29]     c3        272
    x[29]     c4        355
    x[29]     c5        53
    x[29]     c6        362
    x[29]     c1        373
    x[29]     OBJ       -607
    x[30]     c2        848
    x[30]     c3        376
    x[30]     c4        224
    x[30]     c5        620
    x[30]     c6        904
    x[30]     c1        570
    x[30]     OBJ       -991
    x[31]     c2        350
    x[31]     c3        836
    x[31]     c4        696
    x[31]     c5        64
    x[31]     c6        722
    x[31]     c1        182
    x[31]     OBJ       -1459
    x[32]     c2        244
    x[32]     c3        657
    x[32]     c4        994
    x[32]     c5        495
    x[32]     c6        471
    x[32]     c1        934
    x[32]     OBJ       -471
    x[33]     c2        965
    x[33]     c3        714
    x[33]     c4        302
    x[33]     c5        627
    x[33]     c6        129
    x[33]     c1        129
    x[33]     OBJ       -1144
    x[34]     c2        388
    x[34]     c3        632
    x[34]     c4        441
    x[34]     c5        704
    x[34]     c6        907
    x[34]     c1        542
    x[34]     OBJ       -981
    x[35]     c2        217
    x[35]     c3        730
    x[35]     c4        863
    x[35]     c5        618
    x[35]     c6        765
    x[35]     c1        767
    x[35]     OBJ       -971
    x[36]     c2        915
    x[36]     c3        16
    x[36]     c4        229
    x[36]     c5        440
    x[36]     c6        821
    x[36]     c1        964
    x[36]     OBJ       -289
    x[37]     c2        669
    x[37]     c3        218
    x[37]     c4        959
    x[37]     c5        73
    x[37]     c6        110
    x[37]     c1        896
    x[37]     OBJ       -519
    x[38]     c2        314
    x[38]     c3        179
    x[38]     c4        321
    x[38]     c5        72
    x[38]     c6        184
    x[38]     c1        350
    x[38]     OBJ       -727
    x[39]     c2        915
    x[39]     c3        523
    x[39]     c4        327
    x[39]     c5        574
    x[39]     c6        572
    x[39]     c1        178
    x[39]     OBJ       -1508
    x[40]     c2        492
    x[40]     c3        508
    x[40]     c4        108
    x[40]     c5        719
    x[40]     c6        340
    x[40]     c1        557
    x[40]     OBJ       -683
    x[41]     c2        739
    x[41]     c3        846
    x[41]     c4        459
    x[41]     c5        918
    x[41]     c6        281
    x[41]     c1        975
    x[41]     OBJ       -459
    x[42]     c2        58
    x[42]     c3        114
    x[42]     c4        816
    x[42]     c5        321
    x[42]     c6        202
    x[42]     c1        70
    x[42]     OBJ       -981
    x[43]     c2        628
    x[43]     c3        536
    x[43]     c4        394
    x[43]     c5        661
    x[43]     c6        848
    x[43]     c1        226
    x[43]     OBJ       -1110
    x[44]     c2        444
    x[44]     c3        684
    x[44]     c4        518
    x[44]     c5        506
    x[44]     c6        980
    x[44]     c1        356
    x[44]     OBJ       -1223
    x[45]     c2        632
    x[45]     c3        95
    x[45]     c4        6
    x[45]     c5        46
    x[45]     c6        738
    x[45]     c1        404
    x[45]     OBJ       -799
    x[46]     c2        475
    x[46]     c3        698
    x[46]     c4        169
    x[46]     c5        711
    x[46]     c6        282
    x[46]     c1        79
    x[46]     OBJ       -1253
    x[47]     c2        598
    x[47]     c3        977
    x[47]     c4        231
    x[47]     c5        309
    x[47]     c6        327
    x[47]     c1        833
    x[47]     OBJ       -725
    x[48]     c2        752
    x[48]     c3        621
    x[48]     c4        425
    x[48]     c5        864
    x[48]     c6        909
    x[48]     c1        616
    x[48]     OBJ       -1052
    x[49]     c2        493
    x[49]     c3        495
    x[49]     c4        643
    x[49]     c5        273
    x[49]     c6        303
    x[49]     c1        575
    x[49]     OBJ       -750
    x[50]     c2        928
    x[50]     c3        670
    x[50]     c4        565
    x[50]     c5        160
    x[50]     c6        79
    x[50]     c1        987
    x[50]     OBJ       -658
    x[51]     c2        52
    x[51]     c3        477
    x[51]     c4        460
    x[51]     c5        805
    x[51]     c6        623
    x[51]     c1        340
    x[51]     OBJ       -945
    x[52]     c2        114
    x[52]     c3        490
    x[52]     c4        9
    x[52]     c5        287
    x[52]     c6        917
    x[52]     c1        794
    x[52]     OBJ       -382
    x[53]     c2        58
    x[53]     c3        800
    x[53]     c4        431
    x[53]     c5        435
    x[53]     c6        649
    x[53]     c1        321
    x[53]     OBJ       -930
    x[54]     c2        106
    x[54]     c3        116
    x[54]     c4        18
    x[54]     c5        888
    x[54]     c6        773
    x[54]     c1        337
    x[54]     OBJ       -818
    x[55]     c2        876
    x[55]     c3        236
    x[55]     c4        443
    x[55]     c5        311
    x[55]     c6        490
    x[55]     c1        580
    x[55]     OBJ       -621
    x[56]     c2        165
    x[56]     c3        134
    x[56]     c4        617
    x[56]     c5        251
    x[56]     c6        640
    x[56]     c1        920
    x[56]     OBJ       -200
    x[57]     c2        645
    x[57]     c3        772
    x[57]     c4        276
    x[57]     c5        289
    x[57]     c6        101
    x[57]     c1        425
    x[57]     OBJ       -837
    x[58]     c2        133
    x[58]     c3        567
    x[58]     c4        97
    x[58]     c5        650
    x[58]     c6        145
    x[58]     c1        170
    x[58]     OBJ       -844
    x[59]     c2        86
    x[59]     c3        906
    x[59]     c4        238
    x[59]     c5        867
    x[59]     c6        935
    x[59]     c1        955
    x[59]     OBJ       -497
    x[60]     c2        881
    x[60]     c3        515
    x[60]     c4        460
    x[60]     c5        390
    x[60]     c6        211
    x[60]     c1        581
    x[60]     OBJ       -855
    x[61]     c2        640
    x[61]     c3        516
    x[61]     c4        359
    x[61]     c5        961
    x[61]     c6        59
    x[61]     c1        739
    x[61]     OBJ       -457
    x[62]     c2        18
    x[62]     c3        656
    x[62]     c4        594
    x[62]     c5        978
    x[62]     c6        986
    x[62]     c1        622
    x[62]     OBJ       -838
    x[63]     c2        449
    x[63]     c3        636
    x[63]     c4        738
    x[63]     c5        79
    x[63]     c6        103
    x[63]     c1        473
    x[63]     OBJ       -897
    x[64]     c2        596
    x[64]     c3        624
    x[64]     c4        42
    x[64]     c5        51
    x[64]     c6        854
    x[64]     c1        789
    x[64]     OBJ       -642
    x[65]     c2        705
    x[65]     c3        897
    x[65]     c4        464
    x[65]     c5        446
    x[65]     c6        832
    x[65]     c1        946
    x[65]     OBJ       -834
    x[66]     c2        702
    x[66]     c3        515
    x[66]     c4        80
    x[66]     c5        707
    x[66]     c6        376
    x[66]     c1        499
    x[66]     OBJ       -999
    x[67]     c2        714
    x[67]     c3        584
    x[67]     c4        836
    x[67]     c5        568
    x[67]     c6        706
    x[67]     c1        666
    x[67]     OBJ       -1054
    x[68]     c2        743
    x[68]     c3        940
    x[68]     c4        244
    x[68]     c5        848
    x[68]     c6        677
    x[68]     c1        546
    x[68]     OBJ       -976
    x[69]     c2        960
    x[69]     c3        299
    x[69]     c4        564
    x[69]     c5        941
    x[69]     c6        580
    x[69]     c1        630
    x[69]     OBJ       -1090
    x[70]     c2        663
    x[70]     c3        578
    x[70]     c4        548
    x[70]     c5        419
    x[70]     c6        121
    x[70]     c1        997
    x[70]     OBJ       -305
    x[71]     c2        476
    x[71]     c3        774
    x[71]     c4        774
    x[71]     c5        367
    x[71]     c6        189
    x[71]     c1        462
    x[71]     OBJ       -1193
    x[72]     c2        804
    x[72]     c3        805
    x[72]     c4        822
    x[72]     c5        814
    x[72]     c6        13
    x[72]     c1        750
    x[72]     OBJ       -882
    x[73]     c2        554
    x[73]     c3        277
    x[73]     c4        20
    x[73]     c5        699
    x[73]     c6        67
    x[73]     c1        841
    x[73]     OBJ       -500
    x[74]     c2        482
    x[74]     c3        500
    x[74]     c4        410
    x[74]     c5        544
    x[74]     c6        607
    x[74]     c1        795
    x[74]     OBJ       -587
    x[75]     c2        974
    x[75]     c3        56
    x[75]     c4        327
    x[75]     c5        44
    x[75]     c6        477
    x[75]     c1        2
    x[75]     OBJ       -1071
    x[76]     c2        672
    x[76]     c3        191
    x[76]     c4        327
    x[76]     c5        322
    x[76]     c6        175
    x[76]     c1        522
    x[76]     OBJ       -922
    x[77]     c2        464
    x[77]     c3        333
    x[77]     c4        755
    x[77]     c5        371
    x[77]     c6        724
    x[77]     c1        778
    x[77]     OBJ       -686
    x[78]     c2        357
    x[78]     c3        692
    x[78]     c4        870
    x[78]     c5        753
    x[78]     c6        411
    x[78]     c1        42
    x[78]     OBJ       -1624
    x[79]     c2        111
    x[79]     c3        299
    x[79]     c4        678
    x[79]     c5        252
    x[79]     c6        543
    x[79]     c1        714
    x[79]     OBJ       -642
    x[80]     c2        284
    x[80]     c3        206
    x[80]     c4        193
    x[80]     c5        969
    x[80]     c6        910
    x[80]     c1        645
    x[80]     OBJ       -995
    x[81]     c2        775
    x[81]     c3        940
    x[81]     c4        163
    x[81]     c5        281
    x[81]     c6        619
    x[81]     c1        855
    x[81]     OBJ       -771
    x[82]     c2        25
    x[82]     c3        281
    x[82]     c4        92
    x[82]     c5        925
    x[82]     c6        312
    x[82]     c1        396
    x[82]     OBJ       -658
    x[83]     c2        506
    x[83]     c3        627
    x[83]     c4        973
    x[83]     c5        34
    x[83]     c6        695
    x[83]     c1        768
    x[83]     OBJ       -728
    x[84]     c2        899
    x[84]     c3        993
    x[84]     c4        312
    x[84]     c5        910
    x[84]     c6        328
    x[84]     c1        392
    x[84]     OBJ       -1287
    x[85]     c2        766
    x[85]     c3        90
    x[85]     c4        380
    x[85]     c5        63
    x[85]     c6        455
    x[85]     c1        141
    x[85]     OBJ       -1171
    x[86]     c2        155
    x[86]     c3        529
    x[86]     c4        682
    x[86]     c5        780
    x[86]     c6        671
    x[86]     c1        544
    x[86]     OBJ       -997
    x[87]     c2        785
    x[87]     c3        840
    x[87]     c4        390
    x[87]     c5        663
    x[87]     c6        213
    x[87]     c1        847
    x[87]     OBJ       -779
    x[88]     c2        164
    x[88]     c3        516
    x[88]     c4        5
    x[88]     c5        387
    x[88]     c6        526
    x[88]     c1        263
    x[88]     OBJ       -968
    x[89]     c2        970
    x[89]     c3        655
    x[89]     c4        273
    x[89]     c5        955
    x[89]     c6        282
    x[89]     c1        325
    x[89]     OBJ       -1283
    x[90]     c2        846
    x[90]     c3        564
    x[90]     c4        551
    x[90]     c5        230
    x[90]     c6        590
    x[90]     c1        227
    x[90]     OBJ       -1089
    x[91]     c2        563
    x[91]     c3        154
    x[91]     c4        670
    x[91]     c5        425
    x[91]     c6        606
    x[91]     c1        765
    x[91]     OBJ       -632
    x[92]     c2        813
    x[92]     c3        20
    x[92]     c4        464
    x[92]     c5        152
    x[92]     c6        908
    x[92]     c1        128
    x[92]     OBJ       -1205
    x[93]     c2        289
    x[93]     c3        625
    x[93]     c4        643
    x[93]     c5        468
    x[93]     c6        340
    x[93]     c1        10
    x[93]     OBJ       -1458
    x[94]     c2        874
    x[94]     c3        897
    x[94]     c4        392
    x[94]     c5        239
    x[94]     c6        40
    x[94]     c1        973
    x[94]     OBJ       -466
    x[95]     c2        462
    x[95]     c3        981
    x[95]     c4        51
    x[95]     c5        956
    x[95]     c6        560
    x[95]     c1        162
    x[95]     OBJ       -1292
    x[96]     c2        851
    x[96]     c3        1000
    x[96]     c4        200
    x[96]     c5        78
    x[96]     c6        567
    x[96]     c1        743
    x[96]     OBJ       -784
    x[97]     c2        663
    x[97]     c3        633
    x[97]     c4        98
    x[97]     c5        696
    x[97]     c6        94
    x[97]     c1        208
    x[97]     OBJ       -1144
    x[98]     c2        667
    x[98]     c3        307
    x[98]     c4        158
    x[98]     c5        912
    x[98]     c6        218
    x[98]     c1        223
    x[98]     OBJ       -1262
    x[99]     c2        67
    x[99]     c3        220
    x[99]     c4        375
    x[99]     c5        787
    x[99]     c6        43
    x[99]     c1        981
    x[99]     OBJ       -256
    x[100]    c2        355
    x[100]    c3        61
    x[100]    c4        714
    x[100]    c5        419
    x[100]    c6        825
    x[100]    c1        143
    x[100]    OBJ       -1308
RHS
    rhs       c2        13486
    rhs       c3        12749
    rhs       c4        11130
    rhs       c5        12651
    rhs       c6        12451
    rhs       c1        13162
RANGES
BOUNDS
 LO bounds    ss[1]     0
 PL bounds    ss[1]
 MI bounds    s[1]
 UP bounds    s[1]      0
 MI bounds    s[2]
 UP bounds    s[2]      0
 MI bounds    s[3]
 UP bounds    s[3]      0
 MI bounds    s[4]
 UP bounds    s[4]      0
 MI bounds    s[5]
 UP bounds    s[5]      0
 BV bounds    x[1]
 BV bounds    x[2]
 BV bounds    x[3]
 BV bounds    x[4]
 BV bounds    x[5]
 BV bounds    x[6]
 BV bounds    x[7]
 BV bounds    x[8]
 BV bounds    x[9]
 BV bounds    x[10]
 BV bounds    x[11]
 BV bounds    x[12]
 BV bounds    x[13]
 BV bounds    x[14]
 BV bounds    x[15]
 BV bounds    x[16]
 BV bounds    x[17]
 BV bounds    x[18]
 BV bounds    x[19]
 BV bounds    x[20]
 BV bounds    x[21]
 BV bounds    x[22]
 BV bounds    x[23]
 BV bounds    x[24]
 BV bounds    x[25]
 BV bounds    x[26]
 BV bounds    x[27]
 BV bounds    x[28]
 BV bounds    x[29]
 BV bounds    x[30]
 BV bounds    x[31]
 BV bounds    x[32]
 BV bounds    x[33]
 BV bounds    x[34]
 BV bounds    x[35]
 BV bounds    x[36]
 BV bounds    x[37]
 BV bounds    x[38]
 BV bounds    x[39]
 BV bounds    x[40]
 BV bounds    x[41]
 BV bounds    x[42]
 BV bounds    x[43]
 BV bounds    x[44]
 BV bounds    x[45]
 BV bounds    x[46]
 BV bounds    x[47]
 BV bounds    x[48]
 BV bounds    x[49]
 BV bounds    x[50]
 BV bounds    x[51]
 BV bounds    x[52]
 BV bounds    x[53]
 BV bounds    x[54]
 BV bounds    x[55]
 BV bounds    x[56]
 BV bounds    x[57]
 BV bounds    x[58]
 BV bounds    x[59]
 BV bounds    x[60]
 BV bounds    x[61]
 BV bounds    x[62]
 BV bounds    x[63]
 BV bounds    x[64]
 BV bounds    x[65]
 BV bounds    x[66]
 BV bounds    x[67]
 BV bounds    x[68]
 BV bounds    x[69]
 BV bounds    x[70]
 BV bounds    x[71]
 BV bounds    x[72]
 BV bounds    x[73]
 BV bounds    x[74]
 BV bounds    x[75]
 BV bounds    x[76]
 BV bounds    x[77]
 BV bounds    x[78]
 BV bounds    x[79]
 BV bounds    x[80]
 BV bounds    x[81]
 BV bounds    x[82]
 BV bounds    x[83]
 BV bounds    x[84]
 BV bounds    x[85]
 BV bounds    x[86]
 BV bounds    x[87]
 BV bounds    x[88]
 BV bounds    x[89]
 BV bounds    x[90]
 BV bounds    x[91]
 BV bounds    x[92]
 BV bounds    x[93]
 BV bounds    x[94]
 BV bounds    x[95]
 BV bounds    x[96]
 BV bounds    x[97]
 BV bounds    x[98]
 BV bounds    x[99]
 BV bounds    x[100]
ENDATA
